45
100
70	4
69	2
68	1
67	3
66	1
65	3
64	4
63	4
62	1
61	1
60	1
59	1
58	3
57	1
56	1
55	1
54	2
52	5
51	4
49	2
48	1
47	3
46	3
45	1
43	1
42	2
41	4
40	2
38	1
37	1
36	6
35	2
34	4
33	1
31	4
30	2
29	1
28	3
27	1
26	2
25	3
24	2
22	2
21	2
20	1
